
  12    4
  10   10   10   10

   0   0   0   0   0   3 2 3 4 
   8  10  10  10  10   4 11 10 7 6 
   1  10  10  10  10   4 11 10 9 7 
   6  10  10  10  10   2 10 5 
   7  10  10  10  10   2 9 7 
   1  10  10  10  10   2 9 8 
   9  10  10  10  10   1 8 
   8  10  10  10  10   1 12
  10  10  10  10  10   1 12
  10  10  10  10  10   1 12
  10  10  10  10  10   1 12
   0   0   0   0   0   0 
